solution status: time limit reached
objective value:                                   16
shell_j_thingy.ring_inlet_pinholes[8].hole                    1 	(obj:0)
shell_j_thingy.collect_pinholes[2].hole                    1 	(obj:0)
shell_i_thingy.ring_outlet_pinholes[3].hole                    1 	(obj:0)
shell_i_thingy.ring_outlet_pinholes[4].hole                    1 	(obj:0)
shell_j_thingy.prep_inlet_pinholes[4].hole                    1 	(obj:0)
shell_j_thingy.collect_pinholes[4].hole                    1 	(obj:0)
shell_j_thingy.ring_inlet_pinholes[5].hole                    1 	(obj:0)
shell_j_thingy.collect_pinholes[1].hole                    1 	(obj:0)
shell_i_thingy.prep_outlet_pinholes[0].hole                    1 	(obj:0)
shell_j_thingy.ring_inlet_pinholes[9].hole                    1 	(obj:0)
shell_j_thingy.ring_inlet_pinholes[6].hole                    1 	(obj:0)
shell_j_thingy.ring_outlet_pinholes[1].hole                    1 	(obj:0)
shell_i_thingy.collect_pinholes[7].hole                    1 	(obj:0)
shell_i_thingy.ring_inlet_pinholes[2].hole                    1 	(obj:0)
shell_i_thingy.ring_outlet_pinholes[7].hole                    1 	(obj:0)
shell_j_thingy.collect_pinholes[5].hole                    1 	(obj:0)
shell_j_thingy.prep_outlet_pinholes[1].hole                    1 	(obj:0)
shell_j_thingy.ring_inlet_pinholes[3].hole                    1 	(obj:0)
shell_i_thingy.collect_pinholes[9].hole                    1 	(obj:0)
shell_j_thingy.collect_pinholes[0].hole                    1 	(obj:0)
shell_j_thingy.ring_outlet_pinholes[0].hole                    1 	(obj:0)
shell_i_thingy.ring_inlet_pinholes[0].hole                    1 	(obj:0)
shell_i_thingy.prep_inlet_pinholes[2].hole                    1 	(obj:0)
shell_j_thingy.collect_pinholes[8].hole                    1 	(obj:0)
shell_i_thingy.hole                                 1 	(obj:0)
shell_i_thingy.ring_outlet_pinholes[6].hole                    1 	(obj:0)
shell_i_thingy.prep_inlet_pinholes[0].hole                    1 	(obj:0)
shell_i_thingy.ring_inlet_pinholes[1].hole                    1 	(obj:0)
shell_j_thingy.ring_inlet_pinholes[4].hole                    1 	(obj:0)
shell_j_thingy.prep_inlet_pinholes[1].hole                    1 	(obj:0)
shell_i_thingy.ring_outlet_pinholes[8].hole                    1 	(obj:0)
shell_j_thingy.collect_pinholes[3].hole                    1 	(obj:0)
shell_j_thingy.collect_pinholes[6].hole                    1 	(obj:0)
shell_i_thingy.ring_outlet_pinholes[5].hole                    1 	(obj:0)
shell_j_thingy.prep_inlet_pinholes[3].hole                    1 	(obj:0)
shell_j_thingy.ring_inlet_pinholes[7].hole                    1 	(obj:0)
shell_i_thingy.ring_outlet_pinholes[9].hole                    1 	(obj:0)
shell_j_thingy.ring_outlet_pinholes[2].hole                    1 	(obj:0)
thingy.collect_pinholes[5].hole_y                   11 	(obj:0)
thingy.collect_pinholes[5].hole_z                   25 	(obj:0)
thingy.ring_inlet_pinholes[5].hole_x                   11 	(obj:0)
thingy.ring_inlet_pinholes[5].hole_y                   11 	(obj:0)
thingy.prep_outlet_pinholes[1].hole_x                    3 	(obj:0)
thingy.prep_outlet_pinholes[1].hole_y                   11 	(obj:0)
thingy.prep_outlet_pinholes[1].hole_z                   23 	(obj:0)
thingy.ring_inlet_pinholes[5].hole_z                   21 	(obj:0)
thingy.ring_outlet_pinholes[3].hole_z                   19 	(obj:0)
thingy.ring_inlet_pinholes[3].hole_x                   11 	(obj:0)
thingy.ring_inlet_pinholes[3].hole_y                   11 	(obj:0)
thingy.ring_inlet_pinholes[3].hole_z                   23 	(obj:0)
thingy.ring_inlet_pinholes[8].hole_y                   11 	(obj:0)
thingy.collect_pinholes[1].hole_x                   10 	(obj:0)
thingy.collect_pinholes[9].hole_x                   11 	(obj:0)
thingy.collect_pinholes[9].hole_y                   10 	(obj:0)
thingy.collect_pinholes[9].hole_z                   16 	(obj:0)
thingy.collect_pinholes[1].hole_y                   11 	(obj:0)
thingy.collect_pinholes[1].hole_z                   24 	(obj:0)
thingy.collect_pinholes[0].hole_x                    9 	(obj:0)
thingy.collect_pinholes[0].hole_y                   11 	(obj:0)
thingy.collect_pinholes[0].hole_z                   25 	(obj:0)
thingy.collect_pinholes[2].hole_x                   11 	(obj:0)
thingy.ring_outlet_pinholes[4].hole_x                   11 	(obj:0)
thingy.ring_outlet_pinholes[0].hole_x                    8 	(obj:0)
thingy.ring_outlet_pinholes[0].hole_y                   11 	(obj:0)
thingy.ring_outlet_pinholes[0].hole_z                   22 	(obj:0)
thingy.prep_outlet_pinholes[0].hole_x                   11 	(obj:0)
thingy.prep_outlet_pinholes[0].hole_y                   10 	(obj:0)
thingy.ring_inlet_pinholes[0].hole_x                   11 	(obj:0)
thingy.ring_inlet_pinholes[0].hole_y                    5 	(obj:0)
thingy.ring_inlet_pinholes[0].hole_z                   16 	(obj:0)
thingy.prep_outlet_pinholes[0].hole_z                   24 	(obj:0)
thingy.ring_outlet_pinholes[4].hole_y                    8 	(obj:0)
thingy.prep_inlet_pinholes[2].hole_x                   11 	(obj:0)
thingy.prep_inlet_pinholes[2].hole_y                   11 	(obj:0)
thingy.prep_inlet_pinholes[2].hole_z                   25 	(obj:0)
thingy.ring_outlet_pinholes[4].hole_z                   19 	(obj:0)
thingy.ring_inlet_pinholes[9].hole_x                   11 	(obj:0)
thingy.collect_pinholes[8].hole_x                   11 	(obj:0)
thingy.collect_pinholes[8].hole_y                   11 	(obj:0)
thingy.collect_pinholes[8].hole_z                   16 	(obj:0)
thingy.ring_inlet_pinholes[9].hole_y                   11 	(obj:0)
thingy.ring_inlet_pinholes[9].hole_z                   17 	(obj:0)
thingy.hole_x                                      11 	(obj:0)
thingy.hole_y                                       6 	(obj:0)
thingy.hole_z                                      17 	(obj:0)
thingy.collect_pinholes[2].hole_y                   11 	(obj:0)
thingy.collect_pinholes[2].hole_z                   22 	(obj:0)
thingy.ring_outlet_pinholes[6].hole_x                   11 	(obj:0)
thingy.ring_outlet_pinholes[6].hole_y                    6 	(obj:0)
thingy.ring_outlet_pinholes[6].hole_z                   19 	(obj:0)
thingy.ring_inlet_pinholes[6].hole_x                   10 	(obj:0)
thingy.ring_inlet_pinholes[6].hole_y                   11 	(obj:0)
thingy.prep_inlet_pinholes[0].hole_x                   11 	(obj:0)
thingy.prep_inlet_pinholes[0].hole_y                   10 	(obj:0)
thingy.prep_inlet_pinholes[0].hole_z                   25 	(obj:0)
thingy.ring_inlet_pinholes[6].hole_z                   23 	(obj:0)
thingy.prep_inlet_pinholes[4].hole_x                    8 	(obj:0)
thingy.ring_inlet_pinholes[1].hole_x                   11 	(obj:0)
thingy.ring_inlet_pinholes[1].hole_y                    4 	(obj:0)
thingy.ring_inlet_pinholes[1].hole_z                   17 	(obj:0)
thingy.prep_inlet_pinholes[4].hole_y                   11 	(obj:0)
thingy.ring_outlet_pinholes[1].hole_x                   11 	(obj:0)
thingy.ring_inlet_pinholes[4].hole_x                    9 	(obj:0)
thingy.ring_inlet_pinholes[4].hole_y                   11 	(obj:0)
thingy.ring_inlet_pinholes[4].hole_z                   22 	(obj:0)
thingy.ring_outlet_pinholes[1].hole_y                   11 	(obj:0)
thingy.ring_outlet_pinholes[1].hole_z                   19 	(obj:0)
thingy.prep_inlet_pinholes[1].hole_x                   11 	(obj:0)
thingy.prep_inlet_pinholes[1].hole_y                   11 	(obj:0)
thingy.prep_inlet_pinholes[1].hole_z                   24 	(obj:0)
thingy.prep_inlet_pinholes[4].hole_z                   20 	(obj:0)
thingy.ring_inlet_pinholes[8].hole_z                   18 	(obj:0)
thingy.ring_outlet_pinholes[8].hole_x                   11 	(obj:0)
thingy.ring_outlet_pinholes[8].hole_y                    6 	(obj:0)
thingy.ring_outlet_pinholes[8].hole_z                   15 	(obj:0)
thingy.collect_pinholes[7].hole_x                   11 	(obj:0)
thingy.collect_pinholes[7].hole_y                   11 	(obj:0)
thingy.collect_pinholes[3].hole_x                   10 	(obj:0)
thingy.collect_pinholes[3].hole_y                   11 	(obj:0)
thingy.collect_pinholes[3].hole_z                   22 	(obj:0)
thingy.collect_pinholes[7].hole_z                   18 	(obj:0)
thingy.ring_inlet_pinholes[8].hole_x                   10 	(obj:0)
thingy.collect_pinholes[6].hole_x                   10 	(obj:0)
thingy.collect_pinholes[6].hole_y                   11 	(obj:0)
thingy.collect_pinholes[6].hole_z                   19 	(obj:0)
thingy.collect_pinholes[4].hole_x                   10 	(obj:0)
thingy.ring_inlet_pinholes[2].hole_x                   11 	(obj:0)
thingy.ring_outlet_pinholes[5].hole_x                   11 	(obj:0)
thingy.ring_outlet_pinholes[5].hole_y                    8 	(obj:0)
thingy.ring_outlet_pinholes[5].hole_z                   20 	(obj:0)
thingy.ring_inlet_pinholes[2].hole_y                    5 	(obj:0)
thingy.ring_inlet_pinholes[2].hole_z                   17 	(obj:0)
thingy.prep_inlet_pinholes[3].hole_x                   10 	(obj:0)
thingy.prep_inlet_pinholes[3].hole_y                   11 	(obj:0)
thingy.prep_inlet_pinholes[3].hole_z                   21 	(obj:0)
thingy.collect_pinholes[4].hole_y                   11 	(obj:0)
thingy.collect_pinholes[4].hole_z                   20 	(obj:0)
thingy.ring_inlet_pinholes[7].hole_x                    8 	(obj:0)
thingy.ring_inlet_pinholes[7].hole_y                   11 	(obj:0)
thingy.ring_inlet_pinholes[7].hole_z                   19 	(obj:0)
thingy.ring_outlet_pinholes[7].hole_x                   11 	(obj:0)
thingy.ring_outlet_pinholes[7].hole_y                    6 	(obj:0)
thingy.ring_outlet_pinholes[9].hole_x                   11 	(obj:0)
thingy.ring_outlet_pinholes[9].hole_y                    6 	(obj:0)
thingy.ring_outlet_pinholes[9].hole_z                   16 	(obj:0)
thingy.ring_outlet_pinholes[7].hole_z                   18 	(obj:0)
thingy.ring_outlet_pinholes[3].hole_x                   11 	(obj:0)
thingy.ring_outlet_pinholes[2].hole_x                   11 	(obj:0)
thingy.ring_outlet_pinholes[2].hole_y                   11 	(obj:0)
thingy.ring_outlet_pinholes[2].hole_z                   20 	(obj:0)
thingy.ring_outlet_pinholes[3].hole_y                    9 	(obj:0)
thingy.collect_pinholes[5].hole_x                   10 	(obj:0)
x191                                                1 	(obj:1)
x206                                                1 	(obj:1)
x223                                                1 	(obj:1)
x238                                                4 	(obj:1)
x248                                                2 	(obj:1)
x259                                                2 	(obj:1)
x270                                                1 	(obj:1)
x283                                                2 	(obj:1)
x296                                                2 	(obj:1)
